# Instance C205 - 30 dynamic requests - 70 static requests
Dyn   Stat
30    70
ID    RD
1     -1
2     -1
4     -1
5     -1
6     -1
8     -1
9     -1
10    -1
12    -1
17    -1
20    -1
21    -1
22    -1
23    -1
24    -1
27    -1
29    -1
33    -1
35    -1
36    -1
37    -1
38    -1
40    -1
41    -1
42    -1
43    -1
44    -1
45    -1
46    -1
47    -1
48    -1
49    -1
51    -1
52    -1
56    -1
57    -1
58    -1
59    -1
60    -1
61    -1
62    -1
63    -1
66    -1
67    -1
68    -1
69    -1
70    -1
71    -1
72    -1
75    -1
76    -1
78    -1
81    -1
82    -1
83    -1
84    -1
85    -1
86    -1
88    -1
89    -1
90    -1
91    -1
92    -1
93    -1
94    -1
95    -1
96    -1
97    -1
98    -1
100   -1
3     990
7     921
11    2076
13    865
14    1152
15    2134
16    924
18    643
19    1426
25    597
26    1221
28    506
30    12
31    559
32    318
34    972
39    155
50    1483
53    383
54    1065
55    690
64    278
65    752
73    1745
74    12
77    2599
79    702
80    152
87    1246
99    171
